param W_CLASS:=
1 0.018035391917169782
2 -0.09160426614892483
3 0
4 -94.85573367147856
5 -94.85573367147856
6 0.15450032999325636
7 -0.2902167473262476
8 -0.24576365138318668
9 0.01744976107444874
10 -94.85573367147856
11 -0.4005136581397384
12 94.85573367147856
13 94.85573367147856
14 -64.8330003273678
15 -64.12310150958677
16 -94.85573367147856
17 -94.85573367147856
18 -18.43862904990923
19 16.426124083522964;

param B_CLASS:= -59.45818291151704 ;